n = 7;
colSum=[5,3,3,4,4,2,1];
rowSum=[0,3,4,5,2,4,4];
groups=[|1,2,2,2,2,2,2|1,2,2,3,3,3,2|2,2,2,3,4,2,2|5,5,5,3,4,4,2|5,6,3,3,6,4,4|5,6,6,6,6,4,4|5,7,7,6,6,6,6|];
rowN = 7;
colN = 7;
pair=[|0,1,0,0,0,0,0|0,0,1,1,1,0,0|0,1,0,1,0,1,0|0,1,0,0,0,1,0|0,0,1,0,0,1,1|0,0,1,1,0,0,1|0,0,0,0,0,1,0|];
